results_rootrelaxation/bin012_090_012.srr.sol
solution status: optimal solution found
objective value:                     28.4545454545455
_var700_                            0.272727272727273 	(obj:2)
_var720_                            0.909090909090909 	(obj:1)
_var723_                           0.0909090909090907 	(obj:4)
_var732_                            0.636363636363636 	(obj:3)
_var740_                           0.0909090909090907 	(obj:3)
_var746_                            0.636363636363637 	(obj:4)
_var748_                            0.181818181818181 	(obj:3)
_var762_                            0.909090909090909 	(obj:1)
_var764_                           0.0909090909090907 	(obj:2)
_var771_                            0.636363636363636 	(obj:2)
_var780_                            0.272727272727273 	(obj:2)
_var809_                           0.0909090909090911 	(obj:2)
_var810_                            0.272727272727273 	(obj:1)
_var811_                           0.0909090909090907 	(obj:2)
_var844_                            0.181818181818181 	(obj:4)
_var849_                            0.454545454545454 	(obj:2)
_var854_                            0.181818181818182 	(obj:3)
_var886_                            0.181818181818182 	(obj:3)
_var899_                            0.454545454545455 	(obj:3)
_var901_                            0.363636363636364 	(obj:2)
_var904_                           0.0909090909090912 	(obj:3)
_var911_                           0.0909090909090907 	(obj:2)
_var916_                            0.272727272727273 	(obj:5)
_var918_                            0.272727272727272 	(obj:2)
_var921_                            0.181818181818182 	(obj:3)
_var923_                           0.0909090909090912 	(obj:3)
_var926_                            0.454545454545454 	(obj:4)
_var927_                           0.0909090909090907 	(obj:3)
_var929_                           0.0909090909090911 	(obj:4)
_var932_                            0.545454545454546 	(obj:3)
_var934_                            0.454545454545455 	(obj:3)
_var944_                           0.0909090909090913 	(obj:4)
_var947_                            0.272727272727273 	(obj:3)
_var948_                            0.272727272727273 	(obj:3)
_var950_                           0.0909090909090912 	(obj:3)
_var955_                           0.0909090909090907 	(obj:2)
_var957_                            0.272727272727273 	(obj:3)
_var962_                           0.0909090909090907 	(obj:4)
_var965_                           0.0909090909090911 	(obj:4)
_var971_                           0.0909090909090911 	(obj:4)
